<?xml version = "1.0" standalone="yes"?>
<!-- This file has been generated by DOcplex version 2.23.222  -->
<CPLEXSolution version="1.0">
 <header
   problemName="CVRP"
   objectiveValue="16226.5"
  />
 <variables>
  <variable name="x_0_5" index="4" value="1.00000"/>
  <variable name="x_0_6" index="5" value="1.00000"/>
  <variable name="x_0_8" index="7" value="1.00000"/>
  <variable name="x_0_9" index="8" value="1.00000"/>
  <variable name="x_0_11" index="10" value="1.00000"/>
  <variable name="x_0_12" index="11" value="1.00000"/>
  <variable name="x_0_13" index="12" value="1.00000"/>
  <variable name="x_0_14" index="13" value="1.00000"/>
  <variable name="x_0_15" index="14" value="1.00000"/>
  <variable name="x_0_18" index="17" value="1.00000"/>
  <variable name="x_0_21" index="20" value="1.00000"/>
  <variable name="x_0_22" index="21" value="1.00000"/>
  <variable name="x_0_24" index="23" value="1.00000"/>
  <variable name="x_1_0" index="24" value="1.00000"/>
  <variable name="x_2_4" index="51" value="1.00000"/>
  <variable name="x_3_17" index="88" value="1.00000"/>
  <variable name="x_4_0" index="96" value="1.00000"/>
  <variable name="x_5_2" index="122" value="1.00000"/>
  <variable name="x_6_19" index="162" value="1.00000"/>
  <variable name="x_7_0" index="168" value="1.00000"/>
  <variable name="x_8_0" index="192" value="1.00000"/>
  <variable name="x_9_0" index="216" value="1.00000"/>
  <variable name="x_10_3" index="243" value="1.00000"/>
  <variable name="x_11_23" index="286" value="1.00000"/>
  <variable name="x_12_16" index="303" value="1.00000"/>
  <variable name="x_13_0" index="312" value="1.00000"/>
  <variable name="x_14_0" index="336" value="1.00000"/>
  <variable name="x_15_0" index="360" value="1.00000"/>
  <variable name="x_16_0" index="384" value="1.00000"/>
  <variable name="x_17_0" index="408" value="1.00000"/>
  <variable name="x_18_20" index="451" value="1.00000"/>
  <variable name="x_19_0" index="456" value="1.00000"/>
  <variable name="x_20_7" index="487" value="1.00000"/>
  <variable name="x_21_1" index="505" value="1.00000"/>
  <variable name="x_22_0" index="528" value="1.00000"/>
  <variable name="x_23_0" index="552" value="1.00000"/>
  <variable name="x_24_10" index="586" value="1.00000"/>
  <variable name="u_1" index="600" value="59.00000"/>
  <variable name="u_2" index="601" value="35.00000"/>
  <variable name="u_3" index="602" value="35.00000"/>
  <variable name="u_4" index="603" value="51.00000"/>
  <variable name="u_5" index="604" value="34.00000"/>
  <variable name="u_6" index="605" value="27.00000"/>
  <variable name="u_7" index="606" value="59.00000"/>
  <variable name="u_8" index="607" value="56.00000"/>
  <variable name="u_9" index="608" value="59.00000"/>
  <variable name="u_10" index="609" value="30.00000"/>
  <variable name="u_11" index="610" value="37.00000"/>
  <variable name="u_12" index="611" value="41.00000"/>
  <variable name="u_13" index="612" value="47.00000"/>
  <variable name="u_14" index="613" value="59.00000"/>
  <variable name="u_15" index="614" value="58.00000"/>
  <variable name="u_16" index="615" value="59.00000"/>
  <variable name="u_17" index="616" value="45.00000"/>
  <variable name="u_18" index="617" value="2.00000"/>
  <variable name="u_19" index="618" value="57.00000"/>
  <variable name="u_20" index="619" value="20.00000"/>
  <variable name="u_21" index="620" value="39.00000"/>
  <variable name="u_22" index="621" value="53.00000"/>
  <variable name="u_23" index="622" value="59.00000"/>
  <variable name="u_24" index="623" value="4.00000"/>
 </variables>
</CPLEXSolution>
